p td 1490 2680
1 1391
1 212
1 232
1 269
1 283
1 322
1 430
1 553
1 612
1 813
1 837
1 1091
1 1191
1391 117
1391 423
1391 479
1391 532
1391 1027
1391 1308
2 1392
2 160
2 271
2 737
2 800
2 966
2 1111
2 1226
1392 310
1392 387
1392 860
1392 1097
1392 1246
1392 1294
3 1393
3 145
3 376
3 587
1393 128
1393 165
1393 385
1393 412
1393 534
1393 684
1393 922
1393 1075
1393 1307
4 1394
4 462
4 760
4 1048
4 1209
4 1346
1394 143
1394 240
1394 377
1394 541
1394 724
1394 929
1394 1288
5 1395
5 428
5 614
5 779
5 1045
5 1155
5 1336
1395 629
1395 669
1395 711
1395 770
1395 867
1395 1105
1395 1277
6 1396
6 204
6 413
6 508
6 596
6 1016
1396 517
1396 519
1396 632
1396 894
1396 968
1396 1352
7 1397
7 178
7 381
7 440
7 469
7 927
7 972
7 1092
7 1176
7 1225
7 1362
1397 256
1397 445
8 1398
8 475
8 916
8 956
8 1164
8 1203
8 1266
1398 333
1398 352
1398 418
1398 515
1398 543
1398 674
1398 831
1398 895
1398 904
9 1399
9 174
9 805
9 997
9 1078
9 1088
1399 464
1399 607
1399 678
1399 864
1399 1012
1399 1350
10 1400
10 335
10 492
10 603
10 658
10 754
10 1231
1400 105
1400 326
1400 369
1400 456
1400 504
1400 832
1400 851
1400 1080
11 1401
11 200
11 401
11 772
11 775
11 844
11 1003
11 1206
11 1250
11 1370
1401 501
1401 590
1401 878
1401 931
1401 1099
1401 1247
12 1402
12 293
12 591
12 677
12 825
1402 965
1402 1162
1402 1363
13 1403
13 158
13 490
13 531
13 845
13 1007
13 1215
13 1240
1403 133
1403 140
1403 826
1403 938
1403 979
1403 1299
14 1404
14 121
14 318
14 841
14 941
14 1116
14 1353
1404 719
1404 940
1404 1150
15 1405
15 391
15 402
15 618
15 723
15 787
15 835
15 861
15 900
15 963
1405 349
1405 559
1405 687
1405 774
1405 920
1405 1089
1405 1112
1405 1219
1405 1284
1405 1365
16 1406
16 323
16 360
16 527
16 556
16 1179
1406 142
1406 936
1406 1006
1406 1067
1406 1147
17 1407
17 118
17 219
17 358
17 424
17 773
17 1174
17 1344
1407 873
1407 1213
1407 1321
1407 1385
18 1408
18 425
18 976
18 1144
18 1224
18 1302
1408 125
1408 137
1408 977
1408 1068
1408 1141
1408 1214
1408 1268
1408 1281
19 1409
19 436
19 465
19 507
19 898
19 1062
19 1128
19 1133
19 1340
1409 266
1409 324
1409 383
1409 497
1409 675
1409 749
1409 1044
1409 1218
20 1410
20 199
20 221
20 230
20 366
20 766
20 939
20 1121
20 1143
20 1329
20 1386
1410 139
1410 331
1410 472
1410 683
1410 1151
1410 1300
1410 1322
21 1411
21 164
21 173
21 187
21 588
21 601
21 714
21 875
21 1248
21 1380
1411 151
1411 157
1411 582
1411 605
1411 638
1411 680
1411 716
1411 1292
1411 1375
22 1412
22 162
22 189
22 659
22 959
22 982
22 1200
22 1323
1412 208
1412 526
1412 663
1412 685
1412 783
1412 790
1412 1094
1412 1210
1412 1228
1412 1377
23 1413
23 222
23 277
23 342
23 803
23 985
23 1009
23 1076
1413 581
1413 606
1413 615
1413 746
1413 758
1413 902
1413 974
1413 1028
1413 1369
24 1414
24 228
24 368
24 398
24 499
24 627
24 788
24 903
24 1020
24 1310
1414 161
1414 262
1414 337
1414 419
1414 1287
25 1415
25 243
25 246
25 249
25 388
25 417
25 533
25 882
25 914
25 998
1415 332
1415 478
1415 943
1415 1017
26 1416
26 108
26 167
26 279
26 303
26 329
26 666
26 816
26 949
26 1001
26 1058
26 1093
26 1104
26 1114
26 1327
1416 210
1416 247
1416 328
1416 382
1416 397
1416 973
1416 1154
1416 1165
27 1417
27 206
27 487
27 834
27 1253
27 1382
1417 190
1417 378
1417 646
1417 1090
1417 1205
28 1418
28 163
28 389
28 448
28 482
28 768
28 944
28 1211
1418 122
1418 336
1418 628
1418 664
1418 1008
1418 1049
29 1419
29 555
29 934
29 1388
1419 116
1419 235
1419 514
1419 583
1419 639
1419 645
1419 715
1419 957
1419 1052
1419 1293
1419 1364
30 1420
30 314
30 330
30 365
30 471
30 524
30 558
30 595
30 620
30 897
30 930
1420 405
1420 649
1420 718
1420 780
1420 1036
1420 1129
1420 1341
31 1421
31 392
31 544
31 545
31 552
31 585
31 733
31 794
31 981
31 1312
1421 1149
1421 1217
32 1422
32 123
32 155
32 625
32 756
32 989
32 1118
32 1290
1422 102
1422 254
1422 578
1422 912
1422 948
1422 1034
1422 1122
1422 1137
1422 1207
1422 1237
1422 1331
33 1423
33 432
33 435
33 439
33 480
33 850
33 874
33 951
33 1038
1423 194
1423 270
1423 470
1423 608
1423 1046
1423 1065
1423 1235
1423 1295
34 1424
34 343
34 459
34 496
34 566
34 793
1424 180
1424 498
1424 827
1424 1074
1424 1178
1424 1274
35 1425
35 132
35 185
35 280
35 286
35 345
35 415
35 626
35 1251
1425 110
1425 241
1425 463
1425 560
1425 812
1425 1258
1425 1354
36 1426
36 610
36 721
36 1077
36 1197
1426 120
1426 209
1426 216
1426 273
1426 362
1426 433
1426 633
1426 712
1426 725
1426 777
1426 1059
1426 1241
37 1427
37 488
37 528
37 796
37 799
37 1113
37 1373
1427 457
1427 563
1427 598
1427 1037
1427 1171
1427 1249
38 1428
38 129
38 168
38 257
38 696
38 706
38 730
38 810
38 915
38 1107
38 1199
38 1204
38 1326
38 1381
1428 294
1428 452
1428 571
1428 771
1428 866
1428 1265
39 1429
39 338
39 427
39 1029
39 1195
39 1320
1429 124
1429 561
1429 734
1429 1227
40 1430
40 159
40 181
40 319
40 1069
1430 170
1430 215
1430 315
1430 1022
1430 1039
1430 1372
41 1431
41 112
41 186
41 311
41 530
41 573
41 751
41 924
41 937
41 1130
41 1157
41 1283
41 1315
1431 309
1431 373
1431 374
1431 736
1431 743
1431 953
1431 1271
42 1432
42 106
42 144
42 225
42 250
42 252
42 421
42 458
42 694
42 710
42 762
42 889
42 917
1432 351
1432 441
1432 630
1432 1192
43 1433
43 188
43 288
43 495
43 1252
1433 107
1433 148
1433 201
1433 416
1433 461
1433 662
1433 792
44 1434
44 453
44 635
44 767
44 907
44 910
44 1181
1434 220
1434 437
1434 485
1434 806
1434 846
1434 899
1434 1035
45 1435
45 196
45 494
45 988
45 1096
45 1347
1435 367
1435 637
1435 728
1435 853
1435 857
1435 962
1435 1011
1435 1175
46 1436
46 109
46 300
46 776
46 814
46 1081
1436 226
1436 512
1436 969
47 1437
47 276
47 577
47 702
47 1047
47 1291
1437 404
1437 769
1437 1000
1437 1125
1437 1339
48 1438
48 177
48 486
48 1148
1438 229
1438 406
1438 547
1438 616
1438 643
1438 650
1438 1276
49 1439
49 114
49 182
49 217
49 808
49 1071
49 1140
49 1264
49 1309
1439 103
1439 516
1439 994
1439 1236
1439 1273
1439 1305
1439 1359
50 1440
50 586
50 681
50 1079
50 1285
1440 171
1440 203
1440 400
1440 877
1440 913
1440 1019
1440 1109
1440 1158
51 1441
1441 290
1441 676
1441 1023
1441 1255
1441 1282
52 1442
52 261
52 688
52 695
52 822
52 1139
52 1262
52 1314
52 1343
1442 176
1442 942
1442 1334
1442 1390
53 1443
53 703
53 741
53 890
53 958
53 1084
1443 184
1443 510
1443 564
1443 801
1443 1043
1443 1056
1443 1180
1443 1184
1443 1194
1443 1318
54 1444
54 302
54 477
54 748
54 797
54 836
54 881
54 886
54 1033
1444 503
1444 609
1444 621
1444 871
1444 1208
1444 1278
1444 1311
55 1445
55 536
55 722
55 847
1445 1156
1445 1244
56 1446
56 306
56 420
56 955
56 1085
1446 119
1446 699
1446 731
1446 1187
1446 1201
57 1447
57 550
57 602
57 764
57 824
57 1337
1447 1119
58 1448
58 127
58 655
58 761
58 918
58 952
58 996
58 1316
1448 429
1448 562
1448 750
1448 1057
1448 1328
59 1449
59 535
59 565
59 935
59 1379
1449 634
1449 798
1449 975
1449 1330
1449 1389
60 1450
60 295
60 357
60 361
60 522
60 689
60 1145
60 1261
60 1366
1450 285
1450 672
1450 829
1450 868
1450 1272
1450 1301
1450 1304
1450 1345
61 1451
61 211
61 305
61 396
61 537
61 654
61 926
61 1026
61 1040
61 1275
1451 202
1451 218
1451 227
1451 390
1451 431
1451 523
1451 865
1451 1050
1451 1183
62 1452
62 251
62 589
62 661
62 727
62 782
62 971
62 1032
62 1186
62 1243
1452 152
1452 175
1452 278
1452 375
1452 755
1452 995
1452 1025
63 1453
63 434
63 740
63 950
63 954
63 1193
63 1222
63 1338
1453 282
1453 341
1453 549
1453 753
1453 863
64 1454
64 267
64 346
64 468
64 474
64 568
64 791
64 819
64 964
64 1167
64 1170
1454 320
1454 460
1454 466
1454 484
1454 604
1454 619
1454 1055
1454 1269
1454 1351
65 1455
65 195
65 242
65 298
65 359
65 817
1455 317
1455 491
1455 671
1455 1142
1455 1161
1455 1358
66 1456
66 126
66 156
66 422
66 444
66 447
66 567
66 828
66 1004
66 1234
1456 245
1456 1196
1456 1303
67 1457
67 169
67 384
67 414
67 467
67 473
67 509
67 691
67 849
67 869
67 1153
67 1166
67 1256
1457 135
1457 234
1457 372
1457 698
1457 1031
1457 1135
1457 1232
68 1458
68 744
68 1051
68 1177
68 1374
1458 344
1458 347
1458 1014
1458 1041
69 1459
69 289
69 348
69 617
69 660
69 745
69 842
69 1110
69 1368
1459 325
1459 580
1459 665
1459 823
1459 833
1459 1024
70 1460
70 239
70 363
70 1279
70 1335
70 1355
1460 275
1460 557
1460 644
1460 872
1460 896
1460 1267
1460 1298
71 1461
71 919
71 967
71 1169
71 1296
1461 101
1461 131
1461 312
1461 426
1461 451
1461 454
1461 551
1461 784
1461 786
1461 1159
1461 1384
72 1462
72 364
72 399
72 802
72 807
72 815
72 884
1462 386
1462 554
1462 697
1462 778
1462 928
1462 1061
1462 1102
1462 1103
1462 1263
1462 1332
73 1463
73 876
73 983
1463 540
1463 795
1463 848
1463 993
1463 1060
1463 1123
74 1464
74 593
74 600
74 838
74 885
74 1356
1464 149
1464 481
1464 726
1464 870
1464 1018
1464 1270
75 1465
75 735
75 804
75 858
75 1086
75 1182
75 1190
1465 258
1465 1319
76 1466
76 154
76 379
76 1289
1466 576
1466 708
1466 818
1466 843
1466 1313
77 1467
77 260
77 409
77 493
77 707
77 1168
77 1286
1467 150
1467 238
1467 272
1467 410
1467 521
1467 569
1467 789
1467 852
1467 1015
78 1468
78 263
78 313
78 380
78 500
78 592
78 611
78 704
78 925
78 1095
78 1101
78 1146
78 1259
1468 353
1468 393
1468 905
1468 1229
1468 1239
79 1469
79 248
79 308
79 483
79 575
79 640
79 641
79 693
79 701
79 781
79 1132
79 1172
79 1185
1469 443
1469 891
1469 908
1469 1163
1469 1230
1469 1361
80 1470
80 237
80 253
80 667
80 738
80 960
80 1173
1470 224
1470 594
1470 763
1470 911
81 1471
81 233
81 856
81 1349
81 1367
1471 407
1471 670
1471 984
1471 1189
1471 1202
1471 1387
82 1472
82 130
82 141
82 1134
82 1188
82 1216
1472 355
1472 529
1472 709
1472 909
1472 970
1472 991
1472 1115
83 1473
83 205
83 231
83 268
83 340
83 438
83 489
83 1233
1473 291
1473 705
1473 765
1473 1054
1473 1136
84 1474
84 395
84 539
84 548
84 624
84 759
84 809
84 887
84 1082
1474 104
1474 115
1474 284
1474 296
1474 692
1474 729
1474 990
1474 1124
85 1475
85 213
85 292
85 316
1475 274
1475 301
1475 370
1475 505
1475 673
1475 1072
86 1476
86 172
86 299
86 631
86 757
86 892
86 945
1476 297
1476 648
1476 854
1476 1010
87 1477
87 502
87 700
87 717
87 987
87 1070
87 1257
1477 785
1477 1087
88 1478
88 197
88 599
88 1021
1478 403
1478 408
1478 653
1478 732
1478 893
1478 1120
1478 1333
89 1479
89 449
89 520
89 538
89 1066
89 1106
89 1378
1479 113
1479 166
1479 191
1479 307
1479 506
1479 820
1479 1280
90 1480
90 350
90 656
90 1371
1480 354
1480 511
1480 513
1480 811
1480 830
1480 888
1480 1324
91 1481
91 134
91 446
91 668
91 821
91 978
1481 223
1481 525
1481 1083
1481 1131
1481 1212
1481 1254
92 1482
92 546
92 739
92 1002
1482 138
1482 179
1482 411
1482 597
1482 657
1482 879
1482 906
1482 1100
1482 1152
1482 1348
93 1483
93 198
93 265
93 304
93 946
93 1013
93 1127
93 1357
1483 686
1483 883
1483 1138
94 1484
94 334
94 642
94 652
94 720
94 932
94 1160
94 1383
1484 236
1484 579
1484 880
1484 1360
95 1485
95 255
95 623
95 933
95 961
95 986
1485 259
1485 281
1485 679
1485 752
1485 1053
1485 1117
1485 1245
1485 1317
96 1486
96 244
96 264
96 321
96 327
96 339
96 394
96 584
96 855
96 1108
96 1376
1486 192
1486 287
1486 450
1486 613
1486 747
1486 1042
1486 1198
97 1487
97 146
97 442
97 636
97 840
97 923
97 947
1487 455
1487 518
1487 542
1487 570
1487 690
1487 713
1487 862
1487 1221
1487 1260
98 1488
98 193
98 214
98 356
98 839
98 999
98 1238
98 1342
1488 153
1488 207
1488 742
1488 1073
99 1489
99 476
99 572
99 651
99 682
99 901
99 992
99 1098
99 1126
99 1220
99 1223
99 1242
99 1306
99 1325
1489 147
1489 622
1489 647
1489 859
1489 980
1489 1005
1489 1030
1489 1064
100 1490
100 183
100 371
100 574
100 1063
1490 111
1490 136
1490 921
1490 1297
101 102
101 103
102 103
104 105
104 106
105 106
107 108
107 109
108 109
110 111
110 112
111 112
113 114
113 115
114 115
116 117
116 118
117 118
119 120
119 121
120 121
122 123
122 124
123 124
125 126
125 127
126 127
128 129
128 130
129 130
131 132
131 133
132 133
134 135
134 136
135 136
137 138
137 139
138 139
140 141
140 142
141 142
143 144
143 145
144 145
146 147
146 148
147 148
149 150
149 151
150 151
152 153
152 154
153 154
155 156
155 157
156 157
158 159
158 160
159 160
161 162
161 163
162 163
164 165
164 166
165 166
167 168
167 169
168 169
170 171
170 172
171 172
173 174
173 175
174 175
176 177
176 178
177 178
179 180
179 181
180 181
182 183
182 184
183 184
185 186
185 187
186 187
188 189
188 190
189 190
191 192
191 193
192 193
194 195
194 196
195 196
197 198
197 199
198 199
200 201
200 202
201 202
203 204
203 205
204 205
206 207
206 208
207 208
209 210
209 211
210 211
212 213
212 214
213 214
215 216
215 217
216 217
218 219
218 220
219 220
221 222
221 223
222 223
224 225
224 226
225 226
227 228
227 229
228 229
230 231
230 232
231 232
233 234
233 235
234 235
236 237
236 238
237 238
239 240
239 241
240 241
242 243
242 244
243 244
245 246
245 247
246 247
248 249
248 250
249 250
251 252
251 253
252 253
254 255
254 256
255 256
257 258
257 259
258 259
260 261
260 262
261 262
263 264
263 265
264 265
266 267
266 268
267 268
269 270
269 271
270 271
272 273
272 274
273 274
275 276
275 277
276 277
278 279
278 280
279 280
281 282
281 283
282 283
284 285
284 286
285 286
287 288
287 289
288 289
290 291
290 292
291 292
293 294
293 295
294 295
296 297
296 298
297 298
299 300
299 301
300 301
302 303
302 304
303 304
305 306
305 307
306 307
308 309
308 310
309 310
311 312
311 313
312 313
314 315
314 316
315 316
317 318
317 319
318 319
320 321
320 322
321 322
323 324
323 325
324 325
326 327
326 328
327 328
329 330
329 331
330 331
332 333
332 334
333 334
335 336
335 337
336 337
338 339
338 340
339 340
341 342
341 343
342 343
344 345
344 346
345 346
347 348
347 349
348 349
350 351
350 352
351 352
353 354
353 355
354 355
356 357
356 358
357 358
359 360
359 361
360 361
362 363
362 364
363 364
365 366
365 367
366 367
368 369
368 370
369 370
371 372
371 373
372 373
374 375
374 376
375 376
377 378
377 379
378 379
380 381
380 382
381 382
383 384
383 385
384 385
386 387
386 388
387 388
389 390
389 391
390 391
392 393
392 394
393 394
395 396
395 397
396 397
398 399
398 400
399 400
401 402
401 403
402 403
404 405
404 406
405 406
407 408
407 409
408 409
410 411
410 412
411 412
413 414
413 415
414 415
416 417
416 418
417 418
419 420
419 421
420 421
422 423
422 424
423 424
425 426
425 427
426 427
428 429
428 430
429 430
431 432
431 433
432 433
434 435
434 436
435 436
437 438
437 439
438 439
440 441
440 442
441 442
443 444
443 445
444 445
446 447
446 448
447 448
449 450
449 451
450 451
452 453
452 454
453 454
455 456
455 457
456 457
458 459
458 460
459 460
461 462
461 463
462 463
464 465
464 466
465 466
467 468
467 469
468 469
470 471
470 472
471 472
473 474
473 475
474 475
476 477
476 478
477 478
479 480
479 481
480 481
482 483
482 484
483 484
485 486
485 487
486 487
488 489
488 490
489 490
491 492
491 493
492 493
494 495
494 496
495 496
497 498
497 499
498 499
500 501
500 502
501 502
503 504
503 505
504 505
506 507
506 508
507 508
509 510
509 511
510 511
512 513
512 514
513 514
515 516
515 517
516 517
518 519
518 520
519 520
521 522
521 523
522 523
524 525
524 526
525 526
527 528
527 529
528 529
530 531
530 532
531 532
533 534
533 535
534 535
536 537
536 538
537 538
539 540
539 541
540 541
542 543
542 544
543 544
545 546
545 547
546 547
548 549
548 550
549 550
551 552
551 553
552 553
554 555
554 556
555 556
557 558
557 559
558 559
560 561
560 562
561 562
563 564
563 565
564 565
566 567
566 568
567 568
569 570
569 571
570 571
572 573
572 574
573 574
575 576
575 577
576 577
578 579
578 580
579 580
581 582
581 583
582 583
584 585
584 586
585 586
587 588
587 589
588 589
590 591
590 592
591 592
593 594
593 595
594 595
596 597
596 598
597 598
599 600
599 601
600 601
602 603
602 604
603 604
605 606
605 607
606 607
608 609
608 610
609 610
611 612
611 613
612 613
614 615
614 616
615 616
617 618
617 619
618 619
620 621
620 622
621 622
623 624
623 625
624 625
626 627
626 628
627 628
629 630
629 631
630 631
632 633
632 634
633 634
635 636
635 637
636 637
638 639
638 640
639 640
641 642
641 643
642 643
644 645
644 646
645 646
647 648
647 649
648 649
650 651
650 652
651 652
653 654
653 655
654 655
656 657
656 658
657 658
659 660
659 661
660 661
662 663
662 664
663 664
665 666
665 667
666 667
668 669
668 670
669 670
671 672
671 673
672 673
674 675
674 676
675 676
677 678
677 679
678 679
680 681
680 682
681 682
683 684
683 685
684 685
686 687
686 688
687 688
689 690
689 691
690 691
692 693
692 694
693 694
695 696
695 697
696 697
698 699
698 700
699 700
701 702
701 703
702 703
704 705
704 706
705 706
707 708
707 709
708 709
710 711
710 712
711 712
713 714
713 715
714 715
716 717
716 718
717 718
719 720
719 721
720 721
722 723
722 724
723 724
725 726
725 727
726 727
728 729
728 730
729 730
731 732
731 733
732 733
734 735
734 736
735 736
737 738
737 739
738 739
740 741
740 742
741 742
743 744
743 745
744 745
746 747
746 748
747 748
749 750
749 751
750 751
752 753
752 754
753 754
755 756
755 757
756 757
758 759
758 760
759 760
761 762
761 763
762 763
764 765
764 766
765 766
767 768
767 769
768 769
770 771
770 772
771 772
773 774
773 775
774 775
776 777
776 778
777 778
779 780
779 781
780 781
782 783
782 784
783 784
785 786
785 787
786 787
788 789
788 790
789 790
791 792
791 793
792 793
794 795
794 796
795 796
797 798
797 799
798 799
800 801
800 802
801 802
803 804
803 805
804 805
806 807
806 808
807 808
809 810
809 811
810 811
812 813
812 814
813 814
815 816
815 817
816 817
818 819
818 820
819 820
821 822
821 823
822 823
824 825
824 826
825 826
827 828
827 829
828 829
830 831
830 832
831 832
833 834
833 835
834 835
836 837
836 838
837 838
839 840
839 841
840 841
842 843
842 844
843 844
845 846
845 847
846 847
848 849
848 850
849 850
851 852
851 853
852 853
854 855
854 856
855 856
857 858
857 859
858 859
860 861
860 862
861 862
863 864
863 865
864 865
866 867
866 868
867 868
869 870
869 871
870 871
872 873
872 874
873 874
875 876
875 877
876 877
878 879
878 880
879 880
881 882
881 883
882 883
884 885
884 886
885 886
887 888
887 889
888 889
890 891
890 892
891 892
893 894
893 895
894 895
896 897
896 898
897 898
899 900
899 901
900 901
902 903
902 904
903 904
905 906
905 907
906 907
908 909
908 910
909 910
911 912
911 913
912 913
914 915
914 916
915 916
917 918
917 919
918 919
920 921
920 922
921 922
923 924
923 925
924 925
926 927
926 928
927 928
929 930
929 931
930 931
932 933
932 934
933 934
935 936
935 937
936 937
938 939
938 940
939 940
941 942
941 943
942 943
944 945
944 946
945 946
947 948
947 949
948 949
950 951
950 952
951 952
953 954
953 955
954 955
956 957
956 958
957 958
959 960
959 961
960 961
962 963
962 964
963 964
965 966
965 967
966 967
968 969
968 970
969 970
971 972
971 973
972 973
974 975
974 976
975 976
977 978
977 979
978 979
980 981
980 982
981 982
983 984
983 985
984 985
986 987
986 988
987 988
989 990
989 991
990 991
992 993
992 994
993 994
995 996
995 997
996 997
998 999
998 1000
999 1000
1001 1002
1001 1003
1002 1003
1004 1005
1004 1006
1005 1006
1007 1008
1007 1009
1008 1009
1010 1011
1010 1012
1011 1012
1013 1014
1013 1015
1014 1015
1016 1017
1016 1018
1017 1018
1019 1020
1019 1021
1020 1021
1022 1023
1022 1024
1023 1024
1025 1026
1025 1027
1026 1027
1028 1029
1028 1030
1029 1030
1031 1032
1031 1033
1032 1033
1034 1035
1034 1036
1035 1036
1037 1038
1037 1039
1038 1039
1040 1041
1040 1042
1041 1042
1043 1044
1043 1045
1044 1045
1046 1047
1046 1048
1047 1048
1049 1050
1049 1051
1050 1051
1052 1053
1052 1054
1053 1054
1055 1056
1055 1057
1056 1057
1058 1059
1058 1060
1059 1060
1061 1062
1061 1063
1062 1063
1064 1065
1064 1066
1065 1066
1067 1068
1067 1069
1068 1069
1070 1071
1070 1072
1071 1072
1073 1074
1073 1075
1074 1075
1076 1077
1076 1078
1077 1078
1079 1080
1079 1081
1080 1081
1082 1083
1082 1084
1083 1084
1085 1086
1085 1087
1086 1087
1088 1089
1088 1090
1089 1090
1091 1092
1091 1093
1092 1093
1094 1095
1094 1096
1095 1096
1097 1098
1097 1099
1098 1099
1100 1101
1100 1102
1101 1102
1103 1104
1103 1105
1104 1105
1106 1107
1106 1108
1107 1108
1109 1110
1109 1111
1110 1111
1112 1113
1112 1114
1113 1114
1115 1116
1115 1117
1116 1117
1118 1119
1118 1120
1119 1120
1121 1122
1121 1123
1122 1123
1124 1125
1124 1126
1125 1126
1127 1128
1127 1129
1128 1129
1130 1131
1130 1132
1131 1132
1133 1134
1133 1135
1134 1135
1136 1137
1136 1138
1137 1138
1139 1140
1139 1141
1140 1141
1142 1143
1142 1144
1143 1144
1145 1146
1145 1147
1146 1147
1148 1149
1148 1150
1149 1150
1151 1152
1151 1153
1152 1153
1154 1155
1154 1156
1155 1156
1157 1158
1157 1159
1158 1159
1160 1161
1160 1162
1161 1162
1163 1164
1163 1165
1164 1165
1166 1167
1166 1168
1167 1168
1169 1170
1169 1171
1170 1171
1172 1173
1172 1174
1173 1174
1175 1176
1175 1177
1176 1177
1178 1179
1178 1180
1179 1180
1181 1182
1181 1183
1182 1183
1184 1185
1184 1186
1185 1186
1187 1188
1187 1189
1188 1189
1190 1191
1190 1192
1191 1192
1193 1194
1193 1195
1194 1195
1196 1197
1196 1198
1197 1198
1199 1200
1199 1201
1200 1201
1202 1203
1202 1204
1203 1204
1205 1206
1205 1207
1206 1207
1208 1209
1208 1210
1209 1210
1211 1212
1211 1213
1212 1213
1214 1215
1214 1216
1215 1216
1217 1218
1217 1219
1218 1219
1220 1221
1220 1222
1221 1222
1223 1224
1223 1225
1224 1225
1226 1227
1226 1228
1227 1228
1229 1230
1229 1231
1230 1231
1232 1233
1232 1234
1233 1234
1235 1236
1235 1237
1236 1237
1238 1239
1238 1240
1239 1240
1241 1242
1241 1243
1242 1243
1244 1245
1244 1246
1245 1246
1247 1248
1247 1249
1248 1249
1250 1251
1250 1252
1251 1252
1253 1254
1253 1255
1254 1255
1256 1257
1256 1258
1257 1258
1259 1260
1259 1261
1260 1261
1262 1263
1262 1264
1263 1264
1265 1266
1265 1267
1266 1267
1268 1269
1268 1270
1269 1270
1271 1272
1271 1273
1272 1273
1274 1275
1274 1276
1275 1276
1277 1278
1277 1279
1278 1279
1280 1281
1280 1282
1281 1282
1283 1284
1283 1285
1284 1285
1286 1287
1286 1288
1287 1288
1289 1290
1289 1291
1290 1291
1292 1293
1292 1294
1293 1294
1295 1296
1295 1297
1296 1297
1298 1299
1298 1300
1299 1300
1301 1302
1301 1303
1302 1303
1304 1305
1304 1306
1305 1306
1307 1308
1307 1309
1308 1309
1310 1311
1310 1312
1311 1312
1313 1314
1313 1315
1314 1315
1316 1317
1316 1318
1317 1318
1319 1320
1319 1321
1320 1321
1322 1323
1322 1324
1323 1324
1325 1326
1325 1327
1326 1327
1328 1329
1328 1330
1329 1330
1331 1332
1331 1333
1332 1333
1334 1335
1334 1336
1335 1336
1337 1338
1337 1339
1338 1339
1340 1341
1340 1342
1341 1342
1343 1344
1343 1345
1344 1345
1346 1347
1346 1348
1347 1348
1349 1350
1349 1351
1350 1351
1352 1353
1352 1354
1353 1354
1355 1356
1355 1357
1356 1357
1358 1359
1358 1360
1359 1360
1361 1362
1361 1363
1362 1363
1364 1365
1364 1366
1365 1366
1367 1368
1367 1369
1368 1369
1370 1371
1370 1372
1371 1372
1373 1374
1373 1375
1374 1375
1376 1377
1376 1378
1377 1378
1379 1380
1379 1381
1380 1381
1382 1383
1382 1384
1383 1384
1385 1386
1385 1387
1386 1387
1388 1389
1388 1390
1389 1390
